Maximize
  3.5 x1 + 0 x2 + 453 x3 + 6 x4 + 0 x5 + 200 x6
Subject To
  c1: 956 x1 + x3 + 51.6 x4 + x6 = 4
  c2: 2.5 x1 + 4 x2 + 6.5 x3 + 29.8 x4 + x6 = 3.5
  c3: x1 + 1.5 x2 + 6.7 x4 + x6 = 55
Bounds
  0 <= x1
  0 <= x2
  0 <= x3
  0 <= x4
  0 <= x5
  0 <= x6
Generals
  x1 x2 x3 x4 x5 x6
End
